8 500000000000663
0 62500000000039 62500000000033 62500000000018 62500000000071 62500000000094 62500000000079 62500000000089
62500000000039 0 62500000000056 62500000000028 62500000000009 62500000000032 62500000000071 62500000000067
62500000000033 62500000000056 0 62500000000046 62500000000068 62500000000010 62500000000020 62500000000052
62500000000018 62500000000028 62500000000046 0 62500000000037 62500000000093 62500000000076 62500000000061
62500000000071 62500000000009 62500000000068 62500000000037 0 62500000000043 62500000000030 62500000000053
62500000000094 62500000000032 62500000000010 62500000000093 62500000000043 0 62500000000085 62500000000065
62500000000079 62500000000071 62500000000020 62500000000076 62500000000030 62500000000085 0 62500000000007
62500000000089 62500000000067 62500000000052 62500000000061 62500000000053 62500000000065 62500000000007 0
